p cnf 156 206
2 26 32 51 0
2 26 32 -51 0
2 -21 32 52 0
2 -21 32 -52 0
2 3 -26 53 0
2 3 -26 -53 0
-2 22 44 54 0
-2 22 44 -54 0
-2 -22 44 55 0
-2 -22 44 -55 0
-2 23 -44 56 0
-2 23 -44 -56 0
3 -23 41 57 0
3 -23 41 -57 0
3 -41 -44 58 0
3 -41 -44 -58 0
-3 9 20 59 0
-3 9 20 -59 0
-3 -20 32 60 0
-3 -20 32 -60 0
7 9 -32 61 0
7 9 -32 -61 0
-7 16 -32 62 0
-7 16 -32 -62 0
9 -16 -32 63 0
9 -16 -32 -63 0
1 16 37 64 0
1 16 37 -64 0
-1 16 26 65 0
-1 16 26 -65 0
-16 26 37 66 0
-16 26 37 -66 0
-9 -26 37 67 0
-9 -26 37 -67 0
5 -9 46 68 0
5 -9 46 -68 0
11 21 -46 69 0
11 21 -46 -69 0
5 21 -46 70 0
5 21 -46 -70 0
-5 21 39 71 0
-5 21 39 -71 0
-5 -37 -39 72 0
-5 -37 -39 -72 0
-9 -21 -37 73 0
-9 -21 -37 -73 0
10 -19 -48 74 0
10 -19 -48 -74 0
10 -13 -19 75 0
10 -13 -19 -75 0
5 -36 47 76 0
5 -36 47 -76 0
-5 -36 47 77 0
-5 -36 47 -77 0
-16 42 -43 78 0
-16 42 -43 -78 0
-1 13 -39 79 0
-1 13 -39 -79 0
8 -27 30 80 0
8 -27 30 -80 0
13 18 -30 81 0
13 18 -30 -81 0
8 13 -18 82 0
8 13 -18 -82 0
-13 15 -17 83 0
-13 15 -17 -83 0
-13 -15 -30 84 0
-13 -15 -30 -84 0
-17 -27 -45 85 0
-17 -27 -45 -85 0
-12 -27 -45 86 0
-12 -27 -45 -86 0
-18 25 40 87 0
-18 25 40 -87 0
-18 34 -40 88 0
-18 34 -40 -88 0
25 -34 48 89 0
25 -34 48 -89 0
-19 -25 48 90 0
-19 -25 48 -90 0
-1 -12 -34 91 0
-1 -12 -34 -91 0
20 -25 -43 92 0
20 -25 -43 -92 0
8 19 -45 93 0
8 19 -45 -93 0
17 29 34 94 0
17 29 34 -94 0
-17 29 41 95 0
-17 29 41 -95 0
15 -31 -35 96 0
15 -31 -35 -96 0
-15 -31 -35 97 0
-15 -31 -35 -97 0
34 39 -43 98 0
34 39 -43 -98 0
-11 -14 45 99 0
-11 -14 45 -99 0
-11 -12 -14 100 0
-11 -12 -14 -100 0
-24 28 -39 101 0
-24 28 -39 -101 0
-8 -24 -30 102 0
-8 -24 -30 -102 0
7 -25 45 103 0
7 -25 45 -103 0
-7 -44 45 104 0
-7 -44 45 -104 0
-20 36 50 105 0
-20 36 50 -105 0
-8 36 50 106 0
-8 36 50 -106 0
-8 -20 -50 107 0
-8 -20 -50 -107 0
20 -41 44 108 0
20 -41 44 -108 0
28 -33 39 109 0
28 -33 39 -109 0
28 -33 47 110 0
28 -33 47 -110 0
10 27 38 111 0
10 27 38 -111 0
-10 27 30 112 0
-10 27 30 -112 0
4 -10 38 113 0
4 -10 38 -113 0
-6 -35 41 114 0
-6 -35 41 -114 0
12 18 22 115 0
12 18 22 -115 0
17 22 30 116 0
17 22 30 -116 0
12 29 42 117 0
12 29 42 -117 0
-4 23 31 118 0
-4 23 31 -118 0
1 -4 -31 119 0
1 -4 -31 -119 0
-4 -6 -22 120 0
-4 -6 -22 -120 0
-22 40 50 121 0
-22 40 50 -121 0
4 -33 43 122 0
4 -33 43 -122 0
-6 -21 42 123 0
-6 -21 42 -123 0
7 -24 -47 124 0
7 -24 -47 -124 0
-3 31 -46 125 0
-3 31 -46 -125 0
4 12 -36 126 0
4 12 -36 -126 0
-11 -29 36 127 0
-11 -29 36 -127 0
-14 -23 -48 128 0
-14 -23 -48 -128 0
-23 -37 -48 129 0
-23 -37 -48 -129 0
15 -42 43 130 0
15 -42 43 -130 0
-7 24 -50 131 0
-7 24 -50 -131 0
-10 33 46 132 0
-10 33 46 -132 0
40 -42 46 133 0
40 -42 46 -133 0
14 24 -49 134 0
14 24 -49 -134 0
11 17 -38 135 0
11 17 -38 -135 0
19 -28 -47 136 0
19 -28 -47 -136 0
14 24 27 137 0
14 24 27 -137 0
6 -15 43 138 0
6 -15 43 -138 0
11 18 -41 139 0
11 18 -41 -139 0
1 6 49 140 0
1 6 49 -140 0
-29 -47 -50 141 0
-29 -47 -50 -141 0
25 -34 -38 142 0
25 -34 -38 -142 0
6 31 -49 143 0
6 31 -49 -143 0
33 35 144 145 0
33 35 144 -145 0
33 35 -144 146 0
33 35 -144 -146 0
33 35 48 147 0
33 35 48 -147 0
49 -49 148 149 0
49 -49 148 -149 0
49 -49 -148 150 0
49 -49 -148 -150 0
23 -29 -40 151 0
23 -29 -40 -151 0
19 -26 -42 152 0
19 -26 -42 -152 0
14 38 -38 153 0
14 38 -38 -153 0
-28 -40 154 155 0
-28 -40 154 -155 0
-28 -40 -154 156 0
-28 -40 -154 -156 0

